48468 72324
48664 71960
48944 72632
49532 74648
49700 71288
50232 59192
50428 71652
50540 71288
50764 74648
50960 70980
51548 72632
319704 327320
319872 327012
321440 306852
322280 329700
322280 330372
422800 413336
423220 412356
423276 413700
423388 412664
423556 415352
423836 414680
424284 413700
424928 413336
424928 415044
425124 413700
425124 415352
425152 412664
425152 416024
425936 413336
